========================================================== 
File name: C:\DEGR\assets\definitions\MSRCPSP_Gen\200_40_64_10_A.def
Creation date: Wed May 03 10:47:34 CEST 2023
Website: http://imopse.ii.pwr.edu.pl/ 
Reference: 
Myszkowski P. B., Skowronski M. E., Olech L., Oslizlo K., 
Hybrid Ant Colony Optimization in solving Multi-Skill Resource-Constrained Project Scheduling Problem, 
Soft Computing, DOI: DOI 10.1007/s00500-014-1455-x 
========================================================== 
General characteristics: 
Tasks: 200
Resources: 40
Precedence relations: 64
Number of skill types: 10
========================================================== 
ResourceID 	 Salary 	 Skills 
1	 	 	39.4	 	 Q9: 3 	  Q8: 1 	  Q5: 2 	 
2	 	 	11.1	 	 Q1: 1 	  Q2: 0 	  Q0: 2 	  Q8: 0 	  Q7: 3 	  Q3: 0 	  Q9: 0 	 
3	 	 	27.1	 	 Q5: 0 	  Q4: 3 	  Q9: 1 	  Q1: 2 	  Q7: 0 	  Q3: 1 	  Q0: 3 	  Q6: 2 	 
4	 	 	12.3	 	 Q7: 1 	  Q3: 0 	  Q2: 3 	  Q1: 0 	 
5	 	 	91.4	 	 Q2: 0 	  Q6: 3 	  Q8: 0 	  Q1: 1 	  Q9: 2 	  Q5: 3 	  Q0: 1 	  Q3: 1 	  Q7: 2 	 
6	 	 	68.2	 	 Q9: 3 	  Q5: 2 	  Q2: 1 	 
7	 	 	32.9	 	 Q9: 2 	  Q4: 1 	  Q5: 3 	  Q2: 0 	 
8	 	 	42.2	 	 Q8: 1 	 
9	 	 	33.6	 	 Q9: 1 	  Q8: 0 	  Q0: 2 	  Q1: 2 	 
10	 	 	30.2	 	 Q0: 2 	  Q7: 3 	  Q8: 3 	  Q2: 0 	  Q3: 1 	  Q6: 1 	  Q4: 0 	  Q9: 3 	 
11	 	 	67.8	 	 Q5: 2 	  Q1: 3 	  Q0: 0 	  Q3: 0 	  Q2: 1 	  Q7: 2 	  Q4: 0 	 
12	 	 	90.6	 	 Q0: 0 	 
13	 	 	86.2	 	 Q8: 3 	  Q1: 1 	  Q2: 2 	  Q0: 1 	 
14	 	 	25.8	 	 Q9: 0 	  Q5: 1 	 
15	 	 	22.0	 	 Q8: 2 	  Q1: 1 	  Q6: 2 	  Q7: 1 	  Q2: 2 	  Q5: 1 	  Q3: 3 	  Q4: 1 	  Q0: 1 	 
16	 	 	77.1	 	 Q7: 0 	  Q1: 0 	  Q2: 3 	  Q4: 3 	  Q5: 3 	  Q0: 3 	 
17	 	 	66.8	 	 Q0: 1 	 
18	 	 	50.8	 	 Q9: 0 	  Q3: 1 	  Q6: 1 	  Q2: 0 	  Q0: 2 	  Q8: 2 	  Q7: 3 	  Q1: 0 	 
19	 	 	69.5	 	 Q3: 2 	  Q6: 1 	  Q8: 1 	  Q7: 1 	  Q0: 0 	  Q4: 0 	  Q1: 1 	 
20	 	 	55.4	 	 Q8: 3 	  Q7: 2 	  Q1: 0 	 
21	 	 	21.7	 	 Q9: 1 	  Q4: 2 	  Q2: 2 	  Q1: 2 	  Q3: 0 	  Q6: 3 	  Q0: 2 	  Q7: 2 	 
22	 	 	66.0	 	 Q6: 3 	  Q7: 1 	  Q8: 0 	 
23	 	 	77.0	 	 Q1: 0 	  Q3: 0 	 
24	 	 	78.9	 	 Q2: 0 	  Q0: 1 	  Q9: 0 	  Q7: 1 	  Q3: 3 	  Q6: 0 	 
25	 	 	28.7	 	 Q1: 0 	  Q3: 3 	  Q9: 2 	  Q8: 2 	  Q7: 0 	  Q5: 0 	  Q6: 0 	  Q4: 0 	  Q2: 1 	 
26	 	 	25.4	 	 Q7: 2 	  Q6: 1 	  Q2: 0 	  Q9: 0 	  Q3: 2 	  Q8: 0 	  Q4: 2 	  Q5: 3 	 
27	 	 	30.9	 	 Q6: 0 	  Q7: 3 	 
28	 	 	54.3	 	 Q2: 3 	  Q5: 0 	  Q7: 1 	  Q9: 3 	  Q6: 3 	  Q1: 1 	  Q3: 1 	  Q8: 2 	  Q4: 2 	 
29	 	 	59.0	 	 Q9: 3 	  Q2: 2 	 
30	 	 	33.3	 	 Q3: 2 	 
31	 	 	46.6	 	 Q1: 3 	  Q0: 3 	  Q7: 3 	  Q5: 1 	  Q4: 0 	  Q8: 1 	 
32	 	 	19.8	 	 Q4: 3 	 
33	 	 	84.5	 	 Q3: 1 	  Q9: 0 	  Q5: 0 	 
34	 	 	97.6	 	 Q3: 2 	 
35	 	 	21.0	 	 Q5: 2 	  Q2: 2 	 
36	 	 	24.0	 	 Q1: 2 	  Q7: 0 	  Q2: 1 	  Q0: 2 	  Q6: 2 	  Q9: 2 	  Q5: 1 	 
37	 	 	65.1	 	 Q9: 2 	  Q7: 1 	  Q0: 2 	 
38	 	 	70.6	 	 Q1: 3 	  Q7: 2 	  Q2: 1 	  Q9: 3 	  Q5: 3 	  Q0: 0 	  Q8: 3 	  Q4: 3 	  Q6: 1 	 
39	 	 	87.0	 	 Q8: 3 	  Q2: 1 	  Q6: 1 	  Q9: 0 	  Q5: 3 	  Q0: 0 	  Q7: 1 	  Q4: 3 	  Q3: 0 	 
40	 	 	10.5	 	 Q1: 0 	  Q4: 1 	  Q3: 1 	  Q5: 0 	  Q9: 3 	 
========================================================== 
TaskID 	 Duration 	 Skill 	 Predecessor IDs 
1	24	Q1:	1
2	23	Q7:	0
3	32	Q0:	1
4	10	Q1:	2
5	30	Q4:	0
6	17	Q7:	3
7	16	Q2:	0
8	16	Q5:	2
9	19	Q5:	3
10	29	Q2:	3
11	14	Q9:	3
12	15	Q0:	3
13	26	Q1:	0
14	22	Q1:	1
15	10	Q9:	3
16	38	Q1:	3
17	38	Q7:	2
18	27	Q2:	0
19	16	Q5:	2
20	22	Q7:	0
21	24	Q5:	2
22	33	Q8:	3
23	29	Q9:	0
24	25	Q5:	3
25	12	Q0:	2
26	25	Q0:	0
27	37	Q9:	3
28	12	Q1:	2
29	32	Q3:	1
30	40	Q0:	2
31	31	Q0:	1
32	22	Q9:	0
33	18	Q0:	1
34	34	Q9:	1
35	37	Q4:	1
36	17	Q9:	0
37	29	Q8:	0
38	34	Q5:	1
39	14	Q7:	0	4
40	34	Q0:	2
41	37	Q6:	3
42	30	Q3:	0
43	17	Q6:	2
44	18	Q7:	1
45	22	Q0:	3
46	18	Q8:	2
47	13	Q7:	2
48	34	Q7:	2
49	38	Q8:	0
50	27	Q2:	1
51	35	Q7:	2
52	27	Q1:	3
53	34	Q2:	3
54	10	Q1:	2
55	19	Q2:	2
56	39	Q0:	0
57	36	Q0:	1	40
58	38	Q7:	3
59	32	Q3:	2
60	21	Q7:	3
61	22	Q5:	2
62	20	Q8:	3
63	39	Q3:	0	14
64	31	Q6:	0
65	12	Q2:	0
66	20	Q9:	3
67	36	Q8:	3
68	12	Q1:	3
69	34	Q4:	3	58
70	33	Q8:	2
71	37	Q8:	0
72	27	Q7:	2
73	31	Q2:	0	51	8
74	20	Q3:	3
75	20	Q0:	1
76	26	Q0:	2
77	15	Q8:	1
78	26	Q9:	0
79	33	Q5:	0
80	39	Q9:	2
81	11	Q1:	1
82	23	Q0:	3
83	16	Q4:	1
84	38	Q1:	2
85	31	Q4:	3
86	9	Q6:	2
87	34	Q2:	1	24
88	30	Q8:	2
89	24	Q7:	0
90	24	Q7:	2
91	16	Q9:	2
92	29	Q1:	1
93	12	Q6:	3
94	31	Q8:	1	19	23
95	37	Q1:	3
96	23	Q0:	0
97	28	Q5:	2
98	35	Q4:	3	87
99	24	Q0:	2
100	21	Q5:	3
101	36	Q2:	0
102	40	Q4:	1
103	24	Q4:	2	48
104	40	Q1:	2	10
105	15	Q6:	1
106	13	Q4:	0
107	19	Q0:	2	43
108	25	Q4:	3
109	16	Q1:	3
110	20	Q9:	2
111	36	Q1:	3
112	25	Q7:	0
113	22	Q8:	2
114	26	Q3:	2	111
115	13	Q5:	1
116	13	Q3:	3	33
117	32	Q2:	0
118	28	Q0:	1
119	26	Q3:	1	109
120	37	Q5:	2
121	18	Q8:	0
122	36	Q3:	1
123	39	Q5:	1	11	65
124	32	Q6:	3
125	11	Q9:	3
126	35	Q7:	1	79
127	10	Q5:	3
128	14	Q2:	0
129	9	Q5:	3
130	25	Q7:	3
131	13	Q6:	2
132	14	Q5:	3
133	11	Q6:	0	85
134	25	Q2:	0
135	18	Q3:	2
136	22	Q3:	1	82	83	114
137	20	Q4:	1
138	15	Q4:	3
139	9	Q2:	0	75
140	26	Q2:	2
141	17	Q6:	1	33	44
142	29	Q5:	2
143	19	Q5:	1
144	38	Q3:	0	3
145	20	Q0:	2
146	28	Q9:	1	66
147	14	Q1:	0
148	31	Q2:	1	28
149	40	Q8:	1
150	12	Q1:	3	96
151	35	Q2:	3
152	12	Q7:	3
153	14	Q8:	1
154	18	Q3:	0
155	25	Q7:	0	57	130
156	16	Q6:	0	128
157	23	Q1:	0	47
158	22	Q5:	3
159	17	Q8:	0
160	21	Q5:	0	54
161	14	Q3:	1	53
162	13	Q5:	2
163	36	Q7:	0	121
164	28	Q6:	2	8
165	38	Q3:	2	84
166	39	Q6:	1	83
167	18	Q5:	0	151
168	38	Q0:	3
169	21	Q5:	2	127
170	21	Q8:	1	27	58
171	40	Q7:	0	114
172	28	Q3:	1	118	64
173	36	Q6:	0
174	22	Q9:	1	56	27
175	11	Q5:	2	156
176	25	Q7:	0	156	123
177	34	Q3:	1	11
178	33	Q7:	3
179	35	Q9:	3
180	20	Q5:	0	57
181	9	Q9:	0
182	23	Q6:	3
183	11	Q6:	1	140
184	38	Q4:	2
185	21	Q3:	1
186	31	Q3:	3
187	17	Q2:	1	111
188	14	Q6:	0
189	30	Q2:	3	39
190	23	Q9:	1	106
191	28	Q2:	2
192	26	Q1:	2
193	34	Q1:	3
194	32	Q4:	0
195	26	Q9:	2
196	27	Q0:	0
197	14	Q3:	1	52	24
198	34	Q4:	3	117	189
199	31	Q6:	1	172
200	12	Q6:	1	3
========================================================== 